0 47 
1 45 
2 43 
3 44 
4 42 
5 41 
6 44 
7 44 
8 41 
9 40 
10 39 
11 38 
12 35 
13 31 
14 30 
15 30 
16 28 
17 29 
18 26 
19 26 
20 26 
21 25 
22 28 
23 27 
24 26 
25 24 
26 23 
27 21 
28 23 
29 21 
30 19 
31 18 
32 18 
33 14 
34 13 
35 16 
36 15 
37 14 
38 11 
39 11 
40 9 
41 8 
42 8 
43 6 
44 6 
45 4 
46 3 
47 2 
48 1 
49 2 
50 1 
51 0 
52 0 

